Version identifier: 22.1.0.0 | 2022-03-09 | 1a383f8ce
CPXPARAM_Threads                                 1
CPXPARAM_MIP_Strategy_VariableSelect             3
CPXPARAM_TimeLimit                               599.99996639599999
1 of 1 MIP starts provided solutions.
MIP start 'm1' defined initial solution with objective 1.0000.
Tried aggregator 1 time.
MIP Presolve eliminated 20 rows and 0 columns.
MIP Presolve modified 220 coefficients.
Reduced MIP has 901 rows, 2100 columns, and 25160 nonzeros.
Reduced MIP has 2100 binaries, 0 generals, 0 SOSs, and 0 indicators.
Presolve time = 0.06 sec. (54.87 ticks)
Probing time = 0.01 sec. (8.47 ticks)
Tried aggregator 1 time.
Detecting symmetries...
MIP Presolve modified 13 coefficients.
Reduced MIP has 901 rows, 2100 columns, and 25571 nonzeros.
Reduced MIP has 2100 binaries, 0 generals, 0 SOSs, and 0 indicators.
Presolve time = 0.03 sec. (28.51 ticks)
Probing time = 0.01 sec. (8.53 ticks)
Clique table members: 495.
MIP emphasis: balance optimality and feasibility.
MIP search method: dynamic search.
Parallel mode: none, using 1 thread.
Root relaxation solution time = 0.17 sec. (157.39 ticks)

        Nodes                                         Cuts/
   Node  Left     Objective  IInf  Best Integer    Best Bound    ItCnt     Gap

*     0+    0                            1.0000     5050.0000              --- 
      0     0      100.0000   431        1.0000      100.0000     1639     --- 
*     0+    0                           95.0000      100.0000             5.26%
      0     0        cutoff             95.0000      100.0000     1639    5.26%
Detecting symmetries...
      0     2      100.0000   107       95.0000      100.0000     1639    5.26%
Elapsed time = 2.05 sec. (1979.64 ticks, tree = 0.01 MB, solutions = 2)
      1     3      100.0000   399       95.0000      100.0000     4297    5.26%
      2     4      100.0000   422       95.0000      100.0000     5946    5.26%
      3     5      100.0000   362       95.0000      100.0000     7805    5.26%
      6     8      100.0000   232       95.0000      100.0000     8538    5.26%
      9    11      100.0000   318       95.0000      100.0000     9679    5.26%
     10    12      100.0000   217       95.0000      100.0000    10854    5.26%
     13    15      100.0000   176       95.0000      100.0000    11729    5.26%
     16    18      100.0000   184       95.0000      100.0000    12866    5.26%
     19    21      100.0000   139       95.0000      100.0000    14735    5.26%
     28    28       99.7216   137       95.0000      100.0000    21470    5.26%
Elapsed time = 5.89 sec. (5893.36 ticks, tree = 0.20 MB, solutions = 2)
*    37    35      integral     0       98.0000      100.0000    24684    2.04%
     41    37      100.0000    71       98.0000      100.0000    25896    2.04%
*    44    27      integral     0       99.0000      100.0000    27173    1.01%
     55    26        cutoff             99.0000      100.0000    36807    1.01%
     69    28    infeasible             99.0000      100.0000    43935    1.01%
     89    34      100.0000    65       99.0000      100.0000    47173    1.01%
    112    37      100.0000    63       99.0000      100.0000    50227    1.01%
    136    41      100.0000    64       99.0000      100.0000    53190    1.01%
    158    45      100.0000    68       99.0000      100.0000    56368    1.01%
    182    47    infeasible             99.0000      100.0000    59656    1.01%
    212    45      100.0000    59       99.0000      100.0000    63239    1.01%
    240    45      100.0000    62       99.0000      100.0000    66811    1.01%
Elapsed time = 15.53 sec. (15726.92 ticks, tree = 0.32 MB, solutions = 4)
    267    46      100.0000    62       99.0000      100.0000    69872    1.01%
    296    43      100.0000    66       99.0000      100.0000    74045    1.01%
    323    42      100.0000    64       99.0000      100.0000    77763    1.01%
    342    51      100.0000    70       99.0000      100.0000    79564    1.01%
    363    60      100.0000    62       99.0000      100.0000    81697    1.01%
    385    66      100.0000    61       99.0000      100.0000    84317    1.01%
    411    62    infeasible             99.0000      100.0000    88971    1.01%
    434    61    infeasible             99.0000      100.0000    93367    1.01%
    457    62      100.0000    63       99.0000      100.0000    97244    1.01%
    487    54      100.0000    63       99.0000      100.0000   102042    1.01%
Elapsed time = 25.30 sec. (25621.93 ticks, tree = 0.40 MB, solutions = 4)
    506    61      100.0000    63       99.0000      100.0000   104456    1.01%
    531    58    infeasible             99.0000      100.0000   109028    1.01%
    553    58      100.0000    63       99.0000      100.0000   112797    1.01%
    579    54    infeasible             99.0000      100.0000   117467    1.01%
    605    54      100.0000    64       99.0000      100.0000   121272    1.01%
    635    52      100.0000    67       99.0000      100.0000   124375    1.01%
    662    51    infeasible             99.0000      100.0000   128016    1.01%
    682    59      100.0000    65       99.0000      100.0000   130185    1.01%
    705    64      100.0000    63       99.0000      100.0000   133068    1.01%
    732    61      100.0000    65       99.0000      100.0000   136947    1.01%
Elapsed time = 34.78 sec. (35390.90 ticks, tree = 0.45 MB, solutions = 4)
    763    56      100.0000    63       99.0000      100.0000   140666    1.01%
    790    53      100.0000    65       99.0000      100.0000   144522    1.01%
    814    55      100.0000    61       99.0000      100.0000   148235    1.01%
    842    53      100.0000    65       99.0000      100.0000   151866    1.01%
    872    51      100.0000    67       99.0000      100.0000   155756    1.01%
    900    47    infeasible             99.0000      100.0000   159745    1.01%
    927    46      100.0000    65       99.0000      100.0000   163224    1.01%
    953    46      100.0000    67       99.0000      100.0000   166812    1.01%
    978    49      100.0000    63       99.0000      100.0000   170159    1.01%
   1008    43    infeasible             99.0000      100.0000   174610    1.01%
Elapsed time = 44.45 sec. (45239.42 ticks, tree = 0.32 MB, solutions = 4)
   1030    51      100.0000    75       99.0000      100.0000   176721    1.01%
   1056    53      100.0000    60       99.0000      100.0000   180084    1.01%
   1087    50      100.0000    67       99.0000      100.0000   183461    1.01%
   1117    48      100.0000    65       99.0000      100.0000   186510    1.01%
   1145    50      100.0000    62       99.0000      100.0000   189658    1.01%
   1173    52      100.0000    61       99.0000      100.0000   192161    1.01%
   1204    51      100.0000    66       99.0000      100.0000   195295    1.01%
   1235    50      100.0000    64       99.0000      100.0000   198157    1.01%
   1263    50      100.0000    62       99.0000      100.0000   201190    1.01%
   1295    48      100.0000    62       99.0000      100.0000   204200    1.01%
Elapsed time = 54.35 sec. (55132.19 ticks, tree = 0.35 MB, solutions = 4)
   1320    53      100.0000    65       99.0000      100.0000   206795    1.01%
   1345    56      100.0000    62       99.0000      100.0000   210134    1.01%
   1375    58      100.0000    60       99.0000      100.0000   212299    1.01%
   1407    56      100.0000    59       99.0000      100.0000   214840    1.01%
   1438    53      100.0000    63       99.0000      100.0000   218232    1.01%
   1466    55      100.0000    65       99.0000      100.0000   220837    1.01%
   1497    54      100.0000    67       99.0000      100.0000   223167    1.01%
   1527    50      100.0000    63       99.0000      100.0000   226337    1.01%
   1554    49      100.0000    63       99.0000      100.0000   230094    1.01%
   1579    52      100.0000    63       99.0000      100.0000   233068    1.01%
Elapsed time = 64.01 sec. (64908.31 ticks, tree = 0.38 MB, solutions = 4)
   1604    57      100.0000    63       99.0000      100.0000   235865    1.01%
   1637    50      100.0000    70       99.0000      100.0000   240062    1.01%
   1662    55      100.0000    67       99.0000      100.0000   242001    1.01%
   1693    52      100.0000    67       99.0000      100.0000   245291    1.01%
   1723    50      100.0000    73       99.0000      100.0000   249041    1.01%
   1748    55      100.0000    66       99.0000      100.0000   251649    1.01%
   1776    57      100.0000    66       99.0000      100.0000   254403    1.01%
   1800    65      100.0000    61       99.0000      100.0000   256197    1.01%
   1829    62      100.0000    66       99.0000      100.0000   260029    1.01%
   1857    64      100.0000    68       99.0000      100.0000   262769    1.01%
Elapsed time = 73.68 sec. (74734.18 ticks, tree = 0.48 MB, solutions = 4)
   1889    62    infeasible             99.0000      100.0000   265410    1.01%
   1917    64      100.0000    68       99.0000      100.0000   267761    1.01%

Performing restart 1

Repeating presolve.
Tried aggregator 1 time.
MIP Presolve eliminated 1 rows and 100 columns.
Reduced MIP has 900 rows, 2000 columns, and 18310 nonzeros.
Reduced MIP has 2000 binaries, 0 generals, 0 SOSs, and 0 indicators.
Presolve time = 0.01 sec. (9.18 ticks)
Tried aggregator 1 time.
Reduced MIP has 900 rows, 2000 columns, and 18310 nonzeros.
Reduced MIP has 2000 binaries, 0 generals, 0 SOSs, and 0 indicators.
Presolve time = 0.01 sec. (11.52 ticks)
Represolve time = 0.09 sec. (55.14 ticks)
   1925     2      100.0000   123       99.0000      100.0000   269450    1.01%
   1930     7      100.0000   243       99.0000      100.0000   274810    1.01%
   1936    13      100.0000   366       99.0000      100.0000   276423    1.01%
   1944    21      100.0000   355       99.0000      100.0000   280185    1.01%
   1948    25      100.0000   255       99.0000      100.0000   283154    1.01%
   1954    29      100.0000   172       99.0000      100.0000   290828    1.01%
   1960    31      100.0000   126       99.0000      100.0000   294716    1.01%
   1968    37      100.0000    72       99.0000      100.0000   301299    1.01%
Elapsed time = 84.89 sec. (86127.85 ticks, tree = 0.24 MB, solutions = 4)
   1977    42      100.0000    89       99.0000      100.0000   309390    1.01%
   1993    46      100.0000   145       99.0000      100.0000   313188    1.01%
   2012    49      100.0000    91       99.0000      100.0000   315840    1.01%
   2021    49    infeasible             99.0000      100.0000   323313    1.01%
   2025    49      100.0000    94       99.0000      100.0000   324282    1.01%
   2034    51      100.0000    61       99.0000      100.0000   330103    1.01%
   2045    55      100.0000    84       99.0000      100.0000   336827    1.01%
   2055    57      100.0000   124       99.0000      100.0000   344361    1.01%
   2067    61      100.0000   156       99.0000      100.0000   350799    1.01%
   2142    72    infeasible             99.0000      100.0000   362771    1.01%
Elapsed time = 98.90 sec. (100447.88 ticks, tree = 0.48 MB, solutions = 4)
   2207    83      100.0000   120       99.0000      100.0000   374747    1.01%
   2280    90      100.0000   128       99.0000      100.0000   389761    1.01%
   2351   101      100.0000    91       99.0000      100.0000   402453    1.01%
   2438   104      100.0000    95       99.0000      100.0000   415908    1.01%
   2523   113      100.0000    97       99.0000      100.0000   427757    1.01%
   2604   122      100.0000    99       99.0000      100.0000   441291    1.01%
   2685   131      100.0000   102       99.0000      100.0000   454390    1.01%
   2773   135      100.0000    99       99.0000      100.0000   468546    1.01%
   2863   137      100.0000    62       99.0000      100.0000   483000    1.01%
   2953   141    infeasible             99.0000      100.0000   496110    1.01%
Elapsed time = 135.55 sec. (138915.93 ticks, tree = 1.03 MB, solutions = 4)
   3023   149      100.0000    60       99.0000      100.0000   511526    1.01%
   3100   152      100.0000   104       99.0000      100.0000   527402    1.01%
   3200   158      100.0000    94       99.0000      100.0000   540296    1.01%
   3294   160      100.0000   111       99.0000      100.0000   554734    1.01%
   3392   160    infeasible             99.0000      100.0000   569268    1.01%
   3484   160      100.0000    94       99.0000      100.0000   584500    1.01%
   3573   161      100.0000   117       99.0000      100.0000   599636    1.01%
   3668   166      100.0000    64       99.0000      100.0000   614367    1.01%
   3759   169      100.0000    66       99.0000      100.0000   628791    1.01%
   3850   172      100.0000    62       99.0000      100.0000   642831    1.01%
Elapsed time = 172.58 sec. (177281.35 ticks, tree = 1.27 MB, solutions = 4)
   3958   172      100.0000    70       99.0000      100.0000   657200    1.01%
   4061   173      100.0000    80       99.0000      100.0000   671237    1.01%
   4164   184      100.0000    60       99.0000      100.0000   684102    1.01%
   4278   182    infeasible             99.0000      100.0000   698744    1.01%
   4392   180      100.0000    76       99.0000      100.0000   712058    1.01%
   4498   190      100.0000    85       99.0000      100.0000   725041    1.01%
   4614   180      100.0000    80       99.0000      100.0000   739993    1.01%
   4715   187      100.0000    78       99.0000      100.0000   753174    1.01%
   4824   176      100.0000    81       99.0000      100.0000   770422    1.01%
   4922   172      100.0000    99       99.0000      100.0000   785296    1.01%
Elapsed time = 210.00 sec. (215754.65 ticks, tree = 1.27 MB, solutions = 4)
   5013   173      100.0000   102       99.0000      100.0000   800584    1.01%
   5109   179      100.0000    62       99.0000      100.0000   813856    1.01%
   5202   176      100.0000    76       99.0000      100.0000   830725    1.01%
   5302   178      100.0000    62       99.0000      100.0000   844499    1.01%
   5400   172      100.0000   118       99.0000      100.0000   860620    1.01%
   5471   169      100.0000   100       99.0000      100.0000   871017    1.01%
   5570   170      100.0000   113       99.0000      100.0000   885641    1.01%
   5667   171      100.0000   101       99.0000      100.0000   899582    1.01%
   5756   172      100.0000   110       99.0000      100.0000   912370    1.01%
   5856   164      100.0000   107       99.0000      100.0000   926561    1.01%
Elapsed time = 246.89 sec. (254162.51 ticks, tree = 1.21 MB, solutions = 4)
   5941   171    infeasible             99.0000      100.0000   939788    1.01%
   6012   176    infeasible             99.0000      100.0000   956553    1.01%
   6095   179      100.0000   121       99.0000      100.0000   971984    1.01%
   6178   184    infeasible             99.0000      100.0000   986549    1.01%
   6264   180      100.0000   129       99.0000      100.0000  1002212    1.01%
   6357   197      100.0000    54       99.0000      100.0000  1014847    1.01%
   6452   194    infeasible             99.0000      100.0000  1030272    1.01%
   6549   197      100.0000    54       99.0000      100.0000  1043111    1.01%
   6641   201      100.0000    99       99.0000      100.0000  1055970    1.01%
   6736   206    infeasible             99.0000      100.0000  1071440    1.01%
Elapsed time = 283.42 sec. (292476.88 ticks, tree = 1.55 MB, solutions = 4)
   6825   203      100.0000    89       99.0000      100.0000  1083965    1.01%
   6927   211      100.0000    62       99.0000      100.0000  1096758    1.01%
   7039   207      100.0000    92       99.0000      100.0000  1110172    1.01%
   7154   198      100.0000    77       99.0000      100.0000  1125293    1.01%
   7256   200      100.0000    74       99.0000      100.0000  1140409    1.01%
   7369   199      100.0000    79       99.0000      100.0000  1153115    1.01%
   7475   211    infeasible             99.0000      100.0000  1165431    1.01%
   7590   212      100.0000    56       99.0000      100.0000  1179185    1.01%
   7719   201      100.0000    62       99.0000      100.0000  1193318    1.01%
   7830   198      100.0000    73       99.0000      100.0000  1208368    1.01%
Elapsed time = 323.14 sec. (332975.35 ticks, tree = 1.48 MB, solutions = 4)
   7946   200      100.0000    76       99.0000      100.0000  1220481    1.01%
   8075   191      100.0000   108       99.0000      100.0000  1233364    1.01%
   8176   184    infeasible             99.0000      100.0000  1250392    1.01%
   8264   188      100.0000   100       99.0000      100.0000  1265454    1.01%
   8341   203    infeasible             99.0000      100.0000  1276659    1.01%
   8427   203      100.0000    96       99.0000      100.0000  1293351    1.01%
   8521   193      100.0000   102       99.0000      100.0000  1311264    1.01%
   8617   191      100.0000    74       99.0000      100.0000  1326208    1.01%
   8699   195      100.0000    91       99.0000      100.0000  1341314    1.01%
   8791   193      100.0000   103       99.0000      100.0000  1356301    1.01%
Elapsed time = 359.90 sec. (371380.45 ticks, tree = 1.44 MB, solutions = 4)
   8877   197    infeasible             99.0000      100.0000  1369775    1.01%
   8977   193      100.0000    97       99.0000      100.0000  1384062    1.01%
   9073   191      100.0000    80       99.0000      100.0000  1398962    1.01%
   9167   193    infeasible             99.0000      100.0000  1413083    1.01%
   9256   206      100.0000    58       99.0000      100.0000  1425654    1.01%
   9353   205      100.0000    62       99.0000      100.0000  1440642    1.01%
   9454   204      100.0000    82       99.0000      100.0000  1454357    1.01%
   9555   197      100.0000    62       99.0000      100.0000  1467771    1.01%
   9642   196      100.0000    84       99.0000      100.0000  1483058    1.01%
   9734   197      100.0000    81       99.0000      100.0000  1496669    1.01%
Elapsed time = 396.97 sec. (409776.98 ticks, tree = 1.47 MB, solutions = 4)
   9826   201      100.0000    82       99.0000      100.0000  1509681    1.01%
   9927   214      100.0000    74       99.0000      100.0000  1521200    1.01%
  10039   212      100.0000    78       99.0000      100.0000  1534660    1.01%
  10164   205      100.0000    73       99.0000      100.0000  1546832    1.01%
  10282   197    infeasible             99.0000      100.0000  1559693    1.01%
  10378   201      100.0000    75       99.0000      100.0000  1573444    1.01%
  10488   204      100.0000    77       99.0000      100.0000  1586244    1.01%
  10598   194      100.0000   106       99.0000      100.0000  1600857    1.01%
  10698   194      100.0000    88       99.0000      100.0000  1614122    1.01%
  10785   195      100.0000    98       99.0000      100.0000  1628865    1.01%
Elapsed time = 434.11 sec. (448247.90 ticks, tree = 1.46 MB, solutions = 4)
  10870   198      100.0000   107       99.0000      100.0000  1642838    1.01%
  10966   198    infeasible             99.0000      100.0000  1656652    1.01%
  11050   198      100.0000   102       99.0000      100.0000  1671752    1.01%
  11142   194    infeasible             99.0000      100.0000  1687799    1.01%
  11225   201      100.0000   106       99.0000      100.0000  1700727    1.01%
  11314   204      100.0000   106       99.0000      100.0000  1715022    1.01%
  11404   214      100.0000    88       99.0000      100.0000  1726188    1.01%
  11502   209    infeasible             99.0000      100.0000  1740375    1.01%
  11526   211      100.0000   108       99.0000      100.0000  1744023    1.01%
  11617   206      100.0000   104       99.0000      100.0000  1759444    1.01%
Elapsed time = 479.88 sec. (495519.09 ticks, tree = 1.55 MB, solutions = 4)
  11697   206      100.0000    99       99.0000      100.0000  1774714    1.01%
  11791   200      100.0000   110       99.0000      100.0000  1790065    1.01%
  11876   191      100.0000   122       99.0000      100.0000  1807378    1.01%
  11950   199      100.0000    91       99.0000      100.0000  1821669    1.01%
  12030   197    infeasible             99.0000      100.0000  1837856    1.01%
  12117   200    infeasible             99.0000      100.0000  1852282    1.01%
  12197   210    infeasible             99.0000      100.0000  1865802    1.01%
  12288   209      100.0000    93       99.0000      100.0000  1881365    1.01%
  12373   208    infeasible             99.0000      100.0000  1896989    1.01%
  12463   212    infeasible             99.0000      100.0000  1910006    1.01%
Elapsed time = 516.50 sec. (533979.76 ticks, tree = 1.61 MB, solutions = 4)
  12556   207    infeasible             99.0000      100.0000  1924728    1.01%
  12657   202      100.0000    92       99.0000      100.0000  1938018    1.01%
  12744   203      100.0000   110       99.0000      100.0000  1951505    1.01%
  12826   205      100.0000    94       99.0000      100.0000  1966096    1.01%
  12910   211      100.0000   139       99.0000      100.0000  1978928    1.01%
  12994   217      100.0000   102       99.0000      100.0000  1991896    1.01%
  13086   221    infeasible             99.0000      100.0000  2003708    1.01%
Starting limited solution polishing.
  13170   218      100.0000   100       99.0000      100.0000  2019033    1.01%
  13260   212      100.0000   110       99.0000      100.0000  2035108    1.01%
  13350   214      100.0000   106       99.0000      100.0000  2048260    1.01%
Elapsed time = 553.13 sec. (572445.17 ticks, tree = 1.62 MB, solutions = 4)
  13443   203      100.0000   107       99.0000      100.0000  2064772    1.01%
  13542   201      100.0000   100       99.0000      100.0000  2078438    1.01%
  13632   195      100.0000    99       99.0000      100.0000  2093908    1.01%
  13727   194      100.0000    81       99.0000      100.0000  2108179    1.01%
  13810   201      100.0000    95       99.0000      100.0000  2123011    1.01%
  13897   196      100.0000   125       99.0000      100.0000  2138364    1.01%
  13925   196      100.0000   110       99.0000      100.0000  2143062    1.01%
  14011   196      100.0000   119       99.0000      100.0000  2157975    1.01%
  14100   207      100.0000    99       99.0000      100.0000  2169281    1.01%
  14192   209      100.0000   106       99.0000      100.0000  2182428    1.01%
Elapsed time = 590.98 sec. (611806.65 ticks, tree = 1.58 MB, solutions = 4)
  14286   201      100.0000   102       99.0000      100.0000  2197145    1.01%
  14372   200      100.0000   108       99.0000      100.0000  2211445    1.01%

Clique cuts applied:  3
Cover cuts applied:  4

Root node processing (before b&c):
  Real time             =    2.05 sec. (1979.63 ticks)
Sequential b&c:
  Real time             =  597.95 sec. (619415.48 ticks)
                          ------------
Total (root+branch&cut) =  600.00 sec. (621395.11 ticks)
Primal:	99
Dual:	100
Status:	Feasible
Time:	600.04
Sequence:
	8
	15
	1
	11
	13
	3
	8
	4
	1
	5
	19
	6
	10
	14
	12
	5
	17
	12
	5
	19
	0
	16
	15
	9
	10
	13
	0
	9
	4
	10
	1
	19
	5
	2
	14
	10
	6
	19
	16
	3
	17
	16
	12
	17
	5
	12
	9
	5
	15
	9
	16
	15
	7
	18
	4
	9
	5
	4
	9
	16
	15
	0
	8
	13
	2
	11
	13
	1
	11
	15
	12
	11
	13
	3
	8
	4
	6
	8
	13
	6
	5
	19
	3
	5
	14
	2
	16
	17
	1
	5
	14
	2
	5
	14
	1
	10
	17
	1
	18
